proyfinal/src/viki/013/experimentInOfficeAgust.take6.output/d1478984-94e7-4507-bec5-9fef4a7b7305.als.dat
{'cnf.clauses': '118081',
 'cnf.totvars': '69608',
 'conflict literals': '32',
 'conflicts': '12',
 'decisions': '3526',
 'memused.mb': '16.23',
 'outcome': 'UNSAT',
 'propagations': '25710',
 'restarts': '1',
 'solver.msecs': 31,
 'task.msecs': 82}
