proyfinal/src/viki/013/experimentInOfficeAgust.take6.output/d1478984-94e7-4507-bec5-9fef4a7b7305.als.out
Reading from standard input... Use '--help' for help.
============================[ Problem Statistics ]=============================
|                                                                             |
|  Number of variables:         69608                                         |
|  Number of clauses:          118081                                         |
|  Parse time:                   0.02 s                                       |
|                                                                             |
============================[ Search Statistics ]==============================
| Conflicts |          ORIGINAL         |          LEARNT          | Progress |
|           |    Vars  Clauses Literals |    Limit  Clauses Lit/Cl |          |
===============================================================================
===============================================================================
restarts              : 1
conflicts             : 12             (380 /sec)
decisions             : 3526           (0.00 % random) (111558 /sec)
propagations          : 25710          (813427 /sec)
conflict literals     : 32             (0.00 % deleted)
Memory used           : 16.23 MB
CPU time              : 0.031607 s

UNSATISFIABLE
